N = 13;
H = 6;
T = 2;

avail = array3d(1..N, 1..H, 1..T, [5, 0, 5, 8, 10, 10, 4, 1, 7, 9, 9, 8, 1, 3, 5, 5, 8, 0, 5, 2, 6, 2, 3, 6, 4, 9, 6, 10, 10, 5, 5, 5, 3, 1, 7, 3, 4, 6, 9, 4, 5, 3, 4, 1, 3, 0, 3, 2, 5, 7, 1, 2, 7, 6, 6, 1, 0, 6, 5, 3, 8, 7, 0, 9, 5, 1, 4, 9, 1, 8, 7, 10, 7, 10, 4, 9, 2, 7, 9, 2, 7, 0, 10, 10, 3, 5, 1, 8, 0, 5, 7, 9, 8, 8, 7, 7, 2, 3, 3, 8, 2, 7, 8, 1, 3, 4, 3, 6, 1, 4, 2, 10, 9, 0, 8, 10, 2, 2, 3, 9, 5, 9, 8, 2, 1, 1, 9, 7, 1, 0, 0, 0, 1, 8, 5, 3, 6, 5, 1, 9, 10, 3, 9, 8, 5, 0, 0, 10, 8, 10, 2, 4, 9, 0, 5, 5]);

r = array2d(1..H, 1..T, [6, 4, 3, 3, 3, 3, 4, 2, 2, 2, 3, 5]);
